GeneratedTests/Random_10/Random_10_13.tsp
NAME: Random_10_13
TYPE: TSP
DIMENSION: 10
EDGE_WEIGHT_TYPE: EUC_2D
NODE_COORD_SECTION
1 21.58908 10.541161
2 8.746372 9.844876
3 1.8886185 7.3035192
4 4.5168166 17.212027
5 14.93781 16.534779
6 19.478268 15.494948
7 11.927919 12.407339
8 5.3736877 5.321292
9 12.049654 2.076457
10 9.657426 12.758121
EOF
