GeneratedTests/Random_10/Random_10_13.txt
NAME: Random_10_13
TYPE: TSP
DIMENSION: 10
EDGE_WEIGHT_TYPE: EUC_2D
NODE_COORD_SECTION
1 10.760089 22.234169
2 6.9227495 29.512728
3 9.367786 21.439342
4 15.368473 24.634686
5 2.8505464 25.386942
6 12.340452 0.4214698
7 11.385391 20.27051
8 12.175373 10.747619
9 21.593784 3.879218
10 29.37474 25.047577
EOF
